************************************************************************
file with basedata            : md378_.bas
initial value random generator: 357464772
************************************************************************
projects                      :  1
jobs (incl. supersource/sink ):  22
horizon                       :  163
RESOURCES
  - renewable                 :  2   R
  - nonrenewable              :  2   N
  - doubly constrained        :  0   D
************************************************************************
PROJECT INFORMATION:
pronr.  #jobs rel.date duedate tardcost  MPM-Time
    1     20      0       29        4       29
************************************************************************
PRECEDENCE RELATIONS:
jobnr.    #modes  #successors   successors
   1        1          3           2   3   4
   2        3          3           5   6   7
   3        3          3           5   6   8
   4        3          2          10  14
   5        3          1          19
   6        3          3          10  11  20
   7        3          3           8  13  20
   8        3          2           9  12
   9        3          3          16  17  19
  10        3          2          15  17
  11        3          3          13  15  17
  12        3          2          14  21
  13        3          2          14  21
  14        3          1          19
  15        3          1          18
  16        3          1          18
  17        3          1          18
  18        3          1          21
  19        3          1          22
  20        3          1          22
  21        3          1          22
  22        1          0        
************************************************************************
REQUESTS/DURATIONS:
jobnr. mode duration  R 1  R 2  N 1  N 2
------------------------------------------------------------------------
  1      1     0       0    0    0    0
  2      1     3       0    3    2    3
         2     9       0    3    2    2
         3    10       4    0    1    1
  3      1     1       9    0    6    3
         2     7       9    0    4    2
         3    10       0    3    3    2
  4      1     4       8    0    7    2
         2     6       0    7    5    2
         3     9       3    0    4    2
  5      1     1       8    0    6   10
         2     2       0    6    6   10
         3     7       0    5    4   10
  6      1     4       0   10    3    3
         2     5       3    0    2    3
         3     6       0    7    1    3
  7      1     3       8    0    9    6
         2     8       7    0    8    6
         3    10       0    9    8    3
  8      1     5       0    8    7    9
         2     6       0    7    5    9
         3     6       0    8    2    7
  9      1     5       0    7    8    7
         2     9       6    0    8    4
         3     9       0    5    7    2
 10      1     1       0    7    9    7
         2     7       0    5    8    6
         3    10       7    0    8    3
 11      1     6       3    0    9    5
         2     8       0    8    5    2
         3     8       1    0    5    2
 12      1     1       0    9    2    8
         2     1       4    0    2    6
         3     7       0   10    2    6
 13      1     5       0    1    8    3
         2     8       0    1    4    3
         3    10       3    0    1    2
 14      1     4       0   10    6    5
         2     5       0    9    5    3
         3     9       0    9    5    1
 15      1     4       0    3    2   10
         2     6       0    2    1   10
         3     6       0    1    2    9
 16      1     1      10    0    8    6
         2     6       0    4    7    4
         3     7       9    0    7    3
 17      1     4       0    8    6    9
         2     6       0    8    2    8
         3     6       0    7    4    8
 18      1     4       0    5    6    9
         2     6       0    4    5    8
         3     6       0    5    5    6
 19      1     7       0    7    6    6
         2     9       0    5    4    5
         3    10       0    4    4    5
 20      1     5       0    5    4    8
         2     5       0    6    3    8
         3     7       4    0    2    7
 21      1     3       5    0   10    5
         2     4       4    0    7    5
         3    10       3    0    7    4
 22      1     0       0    0    0    0
************************************************************************
RESOURCEAVAILABILITIES:
  R 1  R 2  N 1  N 2
   14   20  124  124
************************************************************************
MAXIMAL LAGS:
from  to  type  delay
    1   22   ES      0
    1    2   ES      0
    2   22   ES      0
    1    3   ES      0
    3   22   ES      0
    1    4   ES      0
    4   22   ES      0
    1    5   ES      0
    5   22   ES      0
    1    6   ES      0
    6   22   ES      0
    1    7   ES      0
    7   22   ES      0
    1    8   ES      0
    8   22   ES      0
    1    9   ES      0
    9   22   ES      0
    1   10   ES      0
   10   22   ES      0
    1   11   ES      0
   11   22   ES      0
    1   12   ES      0
   12   22   ES      0
    1   13   ES      0
   13   22   ES      0
    1   14   ES      0
   14   22   ES      0
    1   15   ES      0
   15   22   ES      0
    1   16   ES      0
   16   22   ES      0
    1   17   ES      0
   17   22   ES      0
    1   18   ES      0
   18   22   ES      0
    1   19   ES      0
   19   22   ES      0
    1   20   ES      0
   20   22   ES      0
    1   21   ES      0
   21   22   ES      0
    1   22   ES      0
    2    5   SS    -11
    2    5   SE     -8
    2    5   ES     -9
    2    5   EE      3
    2    6   SS      4
    2    6   SE     -7
    2    6   ES      7
    2    6   EE     -2
    2    7   SS      6
    2    7   SE      5
    2    7   ES      5
    2    7   EE    -10
    3    5   SS      0
    3    5   SE     12
    3    5   ES     -9
    3    5   EE     11
    3    6   SS    -12
    3    6   SE     -5
    3    6   ES      2
    3    6   EE     11
    3    8   SS      1
    3    8   SE     -6
    3    8   ES     12
    3    8   EE     -7
    4   10   SS      6
    4   10   SE     -3
    4   10   ES    -12
    4   10   EE     -5
    4   14   SS      4
    4   14   SE     11
    4   14   ES    -12
    4   14   EE     -3
    5   19   SS     -6
    5   19   SE      3
    5   19   ES     -4
    5   19   EE    -10
    6   10   SS      8
    6   10   SE     -7
    6   10   ES      1
    6   10   EE      7
    6   11   SS      5
    6   11   SE    -12
    6   11   ES      4
    6   11   EE     11
    6   20   SS      0
    6   20   SE     -2
    6   20   ES     -2
    6   20   EE     -9
    7    8   SS    -12
    7    8   SE      4
    7    8   ES      1
    7    8   EE     12
    7   13   SS     -9
    7   13   SE      7
    7   13   ES      6
    7   13   EE      2
    7   20   SS    -12
    7   20   SE      3
    7   20   ES     11
    7   20   EE     11
    8    9   SS      4
    8    9   SE     -6
    8    9   ES      7
    8    9   EE     -6
    8   12   SS      9
    8   12   SE    -10
    8   12   ES     -5
    8   12   EE     -8
    9   16   SS      7
    9   16   SE     -3
    9   16   ES    -11
    9   16   EE     -7
    9   17   SS      9
    9   17   SE      3
    9   17   ES     -1
    9   17   EE      6
    9   19   SS     -3
    9   19   SE     -7
    9   19   ES     -1
    9   19   EE    -11
   10   15   SS    -10
   10   15   SE      0
   10   15   ES     -1
   10   15   EE      2
   10   17   SS     -1
   10   17   SE     -1
   10   17   ES     -2
   10   17   EE      3
   11   13   SS     -3
   11   13   SE      4
   13   11   SE      0
   11   13   ES      0
   11   13   EE     -6
   11   15   SS      8
   11   15   SE     -8
   11   15   ES      5
   11   15   EE    -10
   11   17   SS    -12
   11   17   SE      9
   11   17   ES      9
   11   17   EE      3
   12   14   SS      9
   12   14   SE     11
   12   14   ES     12
   12   14   EE    -12
   12   21   SS     -2
   12   21   SE      0
   12   21   ES    -11
   12   21   EE     -2
   13   14   SS     -2
   13   14   SE      3
   13   14   ES     -6
   13   14   EE      4
   13   21   SS     10
   13   21   SE      8
   13   21   ES     12
   13   21   EE     -3
   14   19   SS     -9
   14   19   SE    -11
   14   19   ES      6
   14   19   EE      0
   15   18   SS    -12
   15   18   SE     12
   15   18   ES    -12
   15   18   EE     11
   16   18   SS      1
   16   18   SE      0
   16   18   ES     -9
   16   18   EE      1
   17   18   SS      9
   17   18   SE    -10
   17   18   ES      9
   17   18   EE     -2
   18   21   SS     -6
   18   21   SE    -10
   18   21   ES      2
   18   21   EE      0
************************************************************************
